p edge 50 288 20
v 3 5 32 35
v 2 29 38
v 1 12
v 3 4 9 16
v 5 15 24 25 28 30
v 4 11 17 23 36
v 3 8 18 21
v 1 37
v 2 27 46
v 3 7 44 49
v 2 6 34
v 1 40
v 3 2 13 20
v 2 3 43
v 3 1 45 48
v 4 14 42 47 50
v 1 26
v 2 10 19
v 3 22 31 33
v 2 39 41
e 1 4
e 1 5
e 1 7
e 1 9
e 1 10
e 1 15
e 1 16
e 1 19
e 1 21
e 1 22
e 1 31
e 1 34
e 1 35
e 2 3
e 2 7
e 2 12
e 2 23
e 2 26
e 2 28
e 2 31
e 2 43
e 2 48
e 2 49
e 3 6
e 3 8
e 3 11
e 3 12
e 3 13
e 3 21
e 3 23
e 3 25
e 3 26
e 3 33
e 3 34
e 3 36
e 3 38
e 3 39
e 3 41
e 3 45
e 3 48
e 3 49
e 3 50
e 4 7
e 4 8
e 4 9
e 4 12
e 4 17
e 4 18
e 4 20
e 4 24
e 4 30
e 4 39
e 5 9
e 5 13
e 5 16
e 5 18
e 5 24
e 5 29
e 5 35
e 5 37
e 5 38
e 5 39
e 5 44
e 5 46
e 5 47
e 6 8
e 6 10
e 6 12
e 6 14
e 6 15
e 6 24
e 6 25
e 6 26
e 6 30
e 6 33
e 6 45
e 6 48
e 7 10
e 7 14
e 7 34
e 7 44
e 7 45
e 7 46
e 8 26
e 8 37
e 8 40
e 8 41
e 8 45
e 8 47
e 8 50
e 9 12
e 9 22
e 9 26
e 9 30
e 9 31
e 9 36
e 9 44
e 9 45
e 9 46
e 10 14
e 10 16
e 10 23
e 10 24
e 10 31
e 10 42
e 10 46
e 10 50
e 11 28
e 11 30
e 11 32
e 11 34
e 11 36
e 11 37
e 11 38
e 11 44
e 12 27
e 12 30
e 12 31
e 12 47
e 13 18
e 13 24
e 13 30
e 13 32
e 13 35
e 13 37
e 13 38
e 13 40
e 13 42
e 13 47
e 13 49
e 14 17
e 14 18
e 14 21
e 14 24
e 14 28
e 14 32
e 14 40
e 14 41
e 14 43
e 14 47
e 15 17
e 15 20
e 15 29
e 15 35
e 15 38
e 15 41
e 16 18
e 16 22
e 16 24
e 16 25
e 16 28
e 16 29
e 16 31
e 16 32
e 16 44
e 16 47
e 17 21
e 17 23
e 17 30
e 17 40
e 17 41
e 17 45
e 18 21
e 18 26
e 18 32
e 18 39
e 18 41
e 18 48
e 19 29
e 19 30
e 19 33
e 19 35
e 19 36
e 19 40
e 19 41
e 19 43
e 19 48
e 19 50
e 20 22
e 20 32
e 20 40
e 20 49
e 21 37
e 21 38
e 21 44
e 22 23
e 22 24
e 22 25
e 22 28
e 22 29
e 22 30
e 22 38
e 22 39
e 22 40
e 22 44
e 22 46
e 22 50
e 23 25
e 23 28
e 23 39
e 23 41
e 23 47
e 23 49
e 24 32
e 24 33
e 24 34
e 24 36
e 24 49
e 25 31
e 25 39
e 25 40
e 25 41
e 25 48
e 26 34
e 26 40
e 26 42
e 26 43
e 27 38
e 27 45
e 27 49
e 28 46
e 28 49
e 29 33
e 29 35
e 29 36
e 29 37
e 29 38
e 29 40
e 29 44
e 29 45
e 29 46
e 30 33
e 30 40
e 30 48
e 31 32
e 31 33
e 31 35
e 31 38
e 31 41
e 31 43
e 31 46
e 31 47
e 32 44
e 32 46
e 33 34
e 33 38
e 33 40
e 33 41
e 33 45
e 33 49
e 34 40
e 34 41
e 34 42
e 34 44
e 35 37
e 35 38
e 35 45
e 35 50
e 36 40
e 36 41
e 36 42
e 36 46
e 36 48
e 36 49
e 37 45
e 37 47
e 38 39
e 38 40
e 38 44
e 38 45
e 38 49
e 39 41
e 39 42
e 39 46
e 39 50
e 40 43
e 40 44
e 40 45
e 40 49
e 41 44
e 41 47
e 41 50
e 42 46
e 42 50
e 43 46
e 44 46
e 44 48
e 45 49
